(set-logic QF_S)
(declare-fun var0 () String)
(declare-fun var1 () String)
(declare-fun var2 () String)
(declare-fun var3 () Int)
(declare-fun var4 () Int)
(declare-fun var5 () String)
(declare-fun var6 () Int)
(declare-fun var7 () Int)
(assert (str.contains var0 var1))
(assert (str.prefixof (str.substr var2 var3 var4) (str.at var5 var6)))
(assert (str.contains (str.at var5 var7) (str.at var0 var3)))
(assert (str.suffixof "V+&Vl" var1))
(check-sat)